23
1 0 4
2 0 57
2 1 14
3 0 25
3 1 35
3 2 22
4 0 14
4 1 20
4 2 15
4 3 61
5 0 13
5 1 27
5 2 29
5 3 37
5 4 18
6 0 14
6 1 55
6 2 52
6 3 38
6 4 9
6 5 51
7 0 4
7 1 41
7 2 4
7 3 62
7 4 5
7 5 42
7 6 61
8 0 33
8 1 2
8 2 63
8 3 48
8 4 14
8 5 58
8 6 32
8 7 28
9 0 14
9 1 50
9 2 29
9 3 63
9 4 44
9 5 21
9 6 29
9 7 53
9 8 21
10 0 29
10 1 23
10 2 34
10 3 26
10 4 27
10 5 19
10 6 15
10 7 5
10 8 6
10 9 6
11 0 6
11 1 58
11 2 41
11 3 53
11 4 27
11 5 60
11 6 62
11 7 29
11 8 33
11 9 46
11 10 15
12 0 20
12 1 21
12 2 8
12 3 31
12 4 19
12 5 30
12 6 60
12 7 29
12 8 8
12 9 15
12 10 30
12 11 51
13 0 32
13 1 27
13 2 41
13 3 12
13 4 31
13 5 32
13 6 24
13 7 27
13 8 20
13 9 10
13 10 23
13 11 13
13 12 22
14 0 12
14 1 8
14 2 25
14 3 6
14 4 35
14 5 29
14 6 47
14 7 14
14 8 60
14 9 17
14 10 27
14 11 16
14 12 61
14 13 40
15 0 63
15 1 18
15 2 5
15 3 28
15 4 43
15 5 48
15 6 51
15 7 7
15 8 46
15 9 28
15 10 49
15 11 7
15 12 30
15 13 49
15 14 45
16 0 11
16 1 43
16 2 40
16 3 23
16 4 54
16 5 40
16 6 52
16 7 63
16 8 18
16 9 29
16 10 2
16 11 63
16 12 40
16 13 45
16 14 6
16 15 41
17 0 33
17 1 60
17 2 37
17 3 10
17 4 26
17 5 1
17 6 23
17 7 32
17 8 45
17 9 11
17 10 26
17 11 40
17 12 60
17 13 19
17 14 2
17 15 10
17 16 47
18 0 56
18 1 32
18 2 28
18 3 54
18 4 28
18 5 38
18 6 60
18 7 46
18 8 31
18 9 23
18 10 3
18 11 45
18 12 39
18 13 32
18 14 42
18 15 13
18 16 43
18 17 57
19 0 39
19 1 49
19 2 39
19 3 21
19 4 23
19 5 12
19 6 24
19 7 15
19 8 38
19 9 27
19 10 38
19 11 14
19 12 56
19 13 29
19 14 34
19 15 47
19 16 16
19 17 18
19 18 59
20 0 54
20 1 31
20 2 28
20 3 9
20 4 11
20 5 34
20 6 10
20 7 33
20 8 34
20 9 12
20 10 31
20 11 62
20 12 53
20 13 1
20 14 39
20 15 13
20 16 58
20 17 16
20 18 46
20 19 53
21 0 53
21 1 4
21 2 24
21 3 48
21 4 44
21 5 21
21 6 13
21 7 17
21 8 39
21 9 2
21 10 17
21 11 46
21 12 4
21 13 46
21 14 47
21 15 54
21 16 15
21 17 50
21 18 10
21 19 2
21 20 11
22 0 26
22 1 2
22 2 7
22 3 10
22 4 18
22 5 15
22 6 31
22 7 12
22 8 4
22 9 27
22 10 47
22 11 50
22 12 21
22 13 32
22 14 52
22 15 29
22 16 62
22 17 61
22 18 43
22 19 23
22 20 29
22 21 31
